p edge 50 299 15
v 5 5 6 43 44 50
v 3 29 35 45
v 4 8 12 31 41
v 3 10 16 22
v 2 13 25
v 3 9 36 38
v 6 1 15 17 18 28 32
v 3 37 46 47
v 4 14 19 21 27
v 2 42 49
v 4 2 7 26 34
v 4 23 30 39 40
v 2 20 24
v 1 3
v 4 4 11 33 48
e 1 2
e 1 8
e 1 12
e 1 13
e 1 21
e 1 22
e 1 23
e 1 27
e 1 31
e 1 39
e 1 48
e 2 12
e 2 13
e 2 15
e 2 17
e 2 19
e 2 26
e 2 28
e 2 32
e 2 33
e 2 36
e 2 37
e 2 38
e 2 40
e 2 45
e 3 6
e 3 9
e 3 12
e 3 17
e 3 18
e 3 19
e 3 21
e 3 23
e 3 31
e 3 33
e 3 38
e 3 40
e 3 45
e 3 46
e 3 49
e 4 13
e 4 16
e 4 17
e 4 18
e 4 19
e 4 20
e 4 25
e 4 32
e 4 34
e 4 36
e 4 37
e 4 40
e 4 42
e 4 43
e 4 44
e 4 50
e 5 17
e 5 20
e 5 27
e 5 31
e 5 35
e 5 39
e 5 40
e 5 46
e 6 12
e 6 14
e 6 20
e 6 27
e 6 32
e 6 33
e 6 39
e 6 40
e 6 48
e 6 49
e 7 12
e 7 13
e 7 18
e 7 20
e 7 22
e 7 26
e 8 10
e 8 13
e 8 16
e 8 17
e 8 19
e 8 33
e 8 36
e 8 50
e 9 12
e 9 14
e 9 16
e 9 19
e 9 27
e 9 30
e 9 33
e 9 34
e 9 36
e 9 37
e 9 39
e 9 41
e 10 12
e 10 13
e 10 23
e 10 24
e 10 27
e 10 28
e 10 29
e 10 47
e 10 50
e 11 19
e 11 20
e 11 27
e 11 32
e 11 40
e 11 43
e 11 44
e 11 45
e 12 26
e 12 29
e 12 31
e 12 38
e 12 47
e 13 18
e 13 21
e 13 27
e 13 29
e 13 32
e 13 36
e 13 39
e 13 40
e 14 15
e 14 16
e 14 23
e 14 24
e 14 25
e 14 26
e 14 27
e 14 29
e 14 30
e 14 34
e 14 36
e 14 39
e 14 40
e 14 45
e 15 18
e 15 21
e 15 28
e 15 33
e 15 34
e 15 38
e 15 39
e 15 42
e 15 49
e 16 20
e 16 23
e 16 25
e 16 29
e 16 30
e 16 31
e 16 35
e 16 36
e 16 39
e 16 40
e 16 41
e 16 43
e 16 44
e 16 46
e 16 50
e 17 22
e 17 29
e 17 32
e 17 34
e 17 40
e 17 43
e 17 44
e 17 48
e 17 50
e 18 20
e 18 21
e 18 31
e 18 39
e 18 40
e 18 42
e 18 46
e 18 49
e 19 24
e 19 26
e 19 28
e 19 38
e 19 49
e 20 24
e 20 30
e 20 31
e 20 33
e 20 35
e 20 37
e 20 40
e 20 46
e 20 49
e 21 29
e 21 41
e 21 50
e 22 23
e 22 32
e 22 35
e 22 41
e 22 43
e 22 44
e 22 45
e 23 29
e 23 33
e 23 34
e 23 36
e 23 45
e 23 47
e 23 48
e 24 25
e 24 26
e 24 33
e 24 38
e 24 41
e 25 30
e 25 31
e 25 32
e 25 35
e 25 41
e 25 42
e 26 29
e 26 37
e 26 38
e 26 40
e 27 29
e 27 39
e 27 45
e 27 50
e 28 33
e 28 37
e 28 38
e 28 46
e 28 49
e 29 34
e 29 35
e 29 36
e 29 43
e 29 45
e 29 47
e 30 37
e 30 49
e 31 33
e 31 35
e 31 36
e 32 37
e 32 38
e 32 42
e 33 34
e 33 36
e 33 38
e 33 39
e 33 40
e 33 41
e 33 46
e 34 37
e 34 44
e 35 37
e 35 39
e 36 38
e 36 39
e 36 41
e 36 42
e 36 44
e 36 45
e 36 46
e 36 47
e 36 49
e 37 40
e 37 41
e 37 43
e 37 50
e 38 42
e 38 43
e 39 41
e 39 48
e 40 47
e 40 48
e 41 48
e 41 50
e 42 45
e 42 46
e 42 49
e 43 44
e 43 46
e 43 49
e 44 45
e 44 50
e 46 47
e 46 48
e 46 49
e 48 49
e 48 50
